db/data/3003121290282032645352228927630425550.z3.out
sat
-------------------
326.371770510
